24

1 1 3
2 10 12
3 6 19
4 9 19
5 4 23
6 19 22
7 3 24
8 20 19
9 17 1
10 13 24
11 22 22
12 22 2
13 8 14
14 23 16
15 24 20
16 23 13
17 24 20
18 6 10
19 10 9
20 1 6
21 11 21
22 3 20
23 23 19
24 16 21

280
